p cnf 667 2418
112 113 114 115 116 117  0
122 123 124 125 126 127  0
132 133 134 135 136 137  0
142 143 144 145 146 147  0
152 153 154 155 156 157  0
162 163 164 165 166 167  0
212 213 214 215 216 217  0
222 223 224 225 226 227  0
232 233 234 235 236 237  0
242 243 244 245 246 247  0
252 253 254 255 256 257  0
262 263 264 265 266 267  0
312 313 314 315 316 317  0
322 323 324 325 326 327  0
332 333 334 335 336 337  0
342 343 344 345 346 347  0
352 353 354 355 356 357  0
362 363 364 365 366 367  0
412 413 414 415 416 417  0
422 423 424 425 426 427  0
432 433 434 435 436 437  0
442 443 444 445 446 447  0
452 453 454 455 456 457  0
462 463 464 465 466 467  0
512 513 514 515 516 517  0
522 523 524 525 526 527  0
532 533 534 535 536 537  0
542 543 544 545 546 547  0
552 553 554 555 556 557  0
562 563 564 565 566 567  0
612 613 614 615 616 617  0
622 623 624 625 626 627  0
632 633 634 635 636 637  0
642 643 644 645 646 647  0
652 653 654 655 656 657  0
662 663 664 665 666 667  0
-112 -122 0
-112 -132 0
-112 -142 0
-112 -152 0
-112 -162 0
-122 -132 0
-122 -142 0
-122 -152 0
-122 -162 0
-132 -142 0
-132 -152 0
-132 -162 0
-142 -152 0
-142 -162 0
-152 -162 0
-113 -123 0
-113 -133 0
-113 -143 0
-113 -153 0
-113 -163 0
-123 -133 0
-123 -143 0
-123 -153 0
-123 -163 0
-133 -143 0
-133 -153 0
-133 -163 0
-143 -153 0
-143 -163 0
-153 -163 0
-114 -124 0
-114 -134 0
-114 -144 0
-114 -154 0
-114 -164 0
-124 -134 0
-124 -144 0
-124 -154 0
-124 -164 0
-134 -144 0
-134 -154 0
-134 -164 0
-144 -154 0
-144 -164 0
-154 -164 0
-115 -125 0
-115 -135 0
-115 -145 0
-115 -155 0
-115 -165 0
-125 -135 0
-125 -145 0
-125 -155 0
-125 -165 0
-135 -145 0
-135 -155 0
-135 -165 0
-145 -155 0
-145 -165 0
-155 -165 0
-116 -126 0
-116 -136 0
-116 -146 0
-116 -156 0
-116 -166 0
-126 -136 0
-126 -146 0
-126 -156 0
-126 -166 0
-136 -146 0
-136 -156 0
-136 -166 0
-146 -156 0
-146 -166 0
-156 -166 0
-117 -127 0
-117 -137 0
-117 -147 0
-117 -157 0
-117 -167 0
-127 -137 0
-127 -147 0
-127 -157 0
-127 -167 0
-137 -147 0
-137 -157 0
-137 -167 0
-147 -157 0
-147 -167 0
-157 -167 0
-212 -222 0
-212 -232 0
-212 -242 0
-212 -252 0
-212 -262 0
-222 -232 0
-222 -242 0
-222 -252 0
-222 -262 0
-232 -242 0
-232 -252 0
-232 -262 0
-242 -252 0
-242 -262 0
-252 -262 0
-213 -223 0
-213 -233 0
-213 -243 0
-213 -253 0
-213 -263 0
-223 -233 0
-223 -243 0
-223 -253 0
-223 -263 0
-233 -243 0
-233 -253 0
-233 -263 0
-243 -253 0
-243 -263 0
-253 -263 0
-214 -224 0
-214 -234 0
-214 -244 0
-214 -254 0
-214 -264 0
-224 -234 0
-224 -244 0
-224 -254 0
-224 -264 0
-234 -244 0
-234 -254 0
-234 -264 0
-244 -254 0
-244 -264 0
-254 -264 0
-215 -225 0
-215 -235 0
-215 -245 0
-215 -255 0
-215 -265 0
-225 -235 0
-225 -245 0
-225 -255 0
-225 -265 0
-235 -245 0
-235 -255 0
-235 -265 0
-245 -255 0
-245 -265 0
-255 -265 0
-216 -226 0
-216 -236 0
-216 -246 0
-216 -256 0
-216 -266 0
-226 -236 0
-226 -246 0
-226 -256 0
-226 -266 0
-236 -246 0
-236 -256 0
-236 -266 0
-246 -256 0
-246 -266 0
-256 -266 0
-217 -227 0
-217 -237 0
-217 -247 0
-217 -257 0
-217 -267 0
-227 -237 0
-227 -247 0
-227 -257 0
-227 -267 0
-237 -247 0
-237 -257 0
-237 -267 0
-247 -257 0
-247 -267 0
-257 -267 0
-312 -322 0
-312 -332 0
-312 -342 0
-312 -352 0
-312 -362 0
-322 -332 0
-322 -342 0
-322 -352 0
-322 -362 0
-332 -342 0
-332 -352 0
-332 -362 0
-342 -352 0
-342 -362 0
-352 -362 0
-313 -323 0
-313 -333 0
-313 -343 0
-313 -353 0
-313 -363 0
-323 -333 0
-323 -343 0
-323 -353 0
-323 -363 0
-333 -343 0
-333 -353 0
-333 -363 0
-343 -353 0
-343 -363 0
-353 -363 0
-314 -324 0
-314 -334 0
-314 -344 0
-314 -354 0
-314 -364 0
-324 -334 0
-324 -344 0
-324 -354 0
-324 -364 0
-334 -344 0
-334 -354 0
-334 -364 0
-344 -354 0
-344 -364 0
-354 -364 0
-315 -325 0
-315 -335 0
-315 -345 0
-315 -355 0
-315 -365 0
-325 -335 0
-325 -345 0
-325 -355 0
-325 -365 0
-335 -345 0
-335 -355 0
-335 -365 0
-345 -355 0
-345 -365 0
-355 -365 0
-316 -326 0
-316 -336 0
-316 -346 0
-316 -356 0
-316 -366 0
-326 -336 0
-326 -346 0
-326 -356 0
-326 -366 0
-336 -346 0
-336 -356 0
-336 -366 0
-346 -356 0
-346 -366 0
-356 -366 0
-317 -327 0
-317 -337 0
-317 -347 0
-317 -357 0
-317 -367 0
-327 -337 0
-327 -347 0
-327 -357 0
-327 -367 0
-337 -347 0
-337 -357 0
-337 -367 0
-347 -357 0
-347 -367 0
-357 -367 0
-412 -422 0
-412 -432 0
-412 -442 0
-412 -452 0
-412 -462 0
-422 -432 0
-422 -442 0
-422 -452 0
-422 -462 0
-432 -442 0
-432 -452 0
-432 -462 0
-442 -452 0
-442 -462 0
-452 -462 0
-413 -423 0
-413 -433 0
-413 -443 0
-413 -453 0
-413 -463 0
-423 -433 0
-423 -443 0
-423 -453 0
-423 -463 0
-433 -443 0
-433 -453 0
-433 -463 0
-443 -453 0
-443 -463 0
-453 -463 0
-414 -424 0
-414 -434 0
-414 -444 0
-414 -454 0
-414 -464 0
-424 -434 0
-424 -444 0
-424 -454 0
-424 -464 0
-434 -444 0
-434 -454 0
-434 -464 0
-444 -454 0
-444 -464 0
-454 -464 0
-415 -425 0
-415 -435 0
-415 -445 0
-415 -455 0
-415 -465 0
-425 -435 0
-425 -445 0
-425 -455 0
-425 -465 0
-435 -445 0
-435 -455 0
-435 -465 0
-445 -455 0
-445 -465 0
-455 -465 0
-416 -426 0
-416 -436 0
-416 -446 0
-416 -456 0
-416 -466 0
-426 -436 0
-426 -446 0
-426 -456 0
-426 -466 0
-436 -446 0
-436 -456 0
-436 -466 0
-446 -456 0
-446 -466 0
-456 -466 0
-417 -427 0
-417 -437 0
-417 -447 0
-417 -457 0
-417 -467 0
-427 -437 0
-427 -447 0
-427 -457 0
-427 -467 0
-437 -447 0
-437 -457 0
-437 -467 0
-447 -457 0
-447 -467 0
-457 -467 0
-512 -522 0
-512 -532 0
-512 -542 0
-512 -552 0
-512 -562 0
-522 -532 0
-522 -542 0
-522 -552 0
-522 -562 0
-532 -542 0
-532 -552 0
-532 -562 0
-542 -552 0
-542 -562 0
-552 -562 0
-513 -523 0
-513 -533 0
-513 -543 0
-513 -553 0
-513 -563 0
-523 -533 0
-523 -543 0
-523 -553 0
-523 -563 0
-533 -543 0
-533 -553 0
-533 -563 0
-543 -553 0
-543 -563 0
-553 -563 0
-514 -524 0
-514 -534 0
-514 -544 0
-514 -554 0
-514 -564 0
-524 -534 0
-524 -544 0
-524 -554 0
-524 -564 0
-534 -544 0
-534 -554 0
-534 -564 0
-544 -554 0
-544 -564 0
-554 -564 0
-515 -525 0
-515 -535 0
-515 -545 0
-515 -555 0
-515 -565 0
-525 -535 0
-525 -545 0
-525 -555 0
-525 -565 0
-535 -545 0
-535 -555 0
-535 -565 0
-545 -555 0
-545 -565 0
-555 -565 0
-516 -526 0
-516 -536 0
-516 -546 0
-516 -556 0
-516 -566 0
-526 -536 0
-526 -546 0
-526 -556 0
-526 -566 0
-536 -546 0
-536 -556 0
-536 -566 0
-546 -556 0
-546 -566 0
-556 -566 0
-517 -527 0
-517 -537 0
-517 -547 0
-517 -557 0
-517 -567 0
-527 -537 0
-527 -547 0
-527 -557 0
-527 -567 0
-537 -547 0
-537 -557 0
-537 -567 0
-547 -557 0
-547 -567 0
-557 -567 0
-612 -622 0
-612 -632 0
-612 -642 0
-612 -652 0
-612 -662 0
-622 -632 0
-622 -642 0
-622 -652 0
-622 -662 0
-632 -642 0
-632 -652 0
-632 -662 0
-642 -652 0
-642 -662 0
-652 -662 0
-613 -623 0
-613 -633 0
-613 -643 0
-613 -653 0
-613 -663 0
-623 -633 0
-623 -643 0
-623 -653 0
-623 -663 0
-633 -643 0
-633 -653 0
-633 -663 0
-643 -653 0
-643 -663 0
-653 -663 0
-614 -624 0
-614 -634 0
-614 -644 0
-614 -654 0
-614 -664 0
-624 -634 0
-624 -644 0
-624 -654 0
-624 -664 0
-634 -644 0
-634 -654 0
-634 -664 0
-644 -654 0
-644 -664 0
-654 -664 0
-615 -625 0
-615 -635 0
-615 -645 0
-615 -655 0
-615 -665 0
-625 -635 0
-625 -645 0
-625 -655 0
-625 -665 0
-635 -645 0
-635 -655 0
-635 -665 0
-645 -655 0
-645 -665 0
-655 -665 0
-616 -626 0
-616 -636 0
-616 -646 0
-616 -656 0
-616 -666 0
-626 -636 0
-626 -646 0
-626 -656 0
-626 -666 0
-636 -646 0
-636 -656 0
-636 -666 0
-646 -656 0
-646 -666 0
-656 -666 0
-617 -627 0
-617 -637 0
-617 -647 0
-617 -657 0
-617 -667 0
-627 -637 0
-627 -647 0
-627 -657 0
-627 -667 0
-637 -647 0
-637 -657 0
-637 -667 0
-647 -657 0
-647 -667 0
-657 -667 0
-112 -212 0
-112 -312 0
-112 -412 0
-112 -512 0
-112 -612 0
-212 -312 0
-212 -412 0
-212 -512 0
-212 -612 0
-312 -412 0
-312 -512 0
-312 -612 0
-412 -512 0
-412 -612 0
-512 -612 0
-113 -213 0
-113 -313 0
-113 -413 0
-113 -513 0
-113 -613 0
-213 -313 0
-213 -413 0
-213 -513 0
-213 -613 0
-313 -413 0
-313 -513 0
-313 -613 0
-413 -513 0
-413 -613 0
-513 -613 0
-114 -214 0
-114 -314 0
-114 -414 0
-114 -514 0
-114 -614 0
-214 -314 0
-214 -414 0
-214 -514 0
-214 -614 0
-314 -414 0
-314 -514 0
-314 -614 0
-414 -514 0
-414 -614 0
-514 -614 0
-115 -215 0
-115 -315 0
-115 -415 0
-115 -515 0
-115 -615 0
-215 -315 0
-215 -415 0
-215 -515 0
-215 -615 0
-315 -415 0
-315 -515 0
-315 -615 0
-415 -515 0
-415 -615 0
-515 -615 0
-116 -216 0
-116 -316 0
-116 -416 0
-116 -516 0
-116 -616 0
-216 -316 0
-216 -416 0
-216 -516 0
-216 -616 0
-316 -416 0
-316 -516 0
-316 -616 0
-416 -516 0
-416 -616 0
-516 -616 0
-117 -217 0
-117 -317 0
-117 -417 0
-117 -517 0
-117 -617 0
-217 -317 0
-217 -417 0
-217 -517 0
-217 -617 0
-317 -417 0
-317 -517 0
-317 -617 0
-417 -517 0
-417 -617 0
-517 -617 0
-122 -222 0
-122 -322 0
-122 -422 0
-122 -522 0
-122 -622 0
-222 -322 0
-222 -422 0
-222 -522 0
-222 -622 0
-322 -422 0
-322 -522 0
-322 -622 0
-422 -522 0
-422 -622 0
-522 -622 0
-123 -223 0
-123 -323 0
-123 -423 0
-123 -523 0
-123 -623 0
-223 -323 0
-223 -423 0
-223 -523 0
-223 -623 0
-323 -423 0
-323 -523 0
-323 -623 0
-423 -523 0
-423 -623 0
-523 -623 0
-124 -224 0
-124 -324 0
-124 -424 0
-124 -524 0
-124 -624 0
-224 -324 0
-224 -424 0
-224 -524 0
-224 -624 0
-324 -424 0
-324 -524 0
-324 -624 0
-424 -524 0
-424 -624 0
-524 -624 0
-125 -225 0
-125 -325 0
-125 -425 0
-125 -525 0
-125 -625 0
-225 -325 0
-225 -425 0
-225 -525 0
-225 -625 0
-325 -425 0
-325 -525 0
-325 -625 0
-425 -525 0
-425 -625 0
-525 -625 0
-126 -226 0
-126 -326 0
-126 -426 0
-126 -526 0
-126 -626 0
-226 -326 0
-226 -426 0
-226 -526 0
-226 -626 0
-326 -426 0
-326 -526 0
-326 -626 0
-426 -526 0
-426 -626 0
-526 -626 0
-127 -227 0
-127 -327 0
-127 -427 0
-127 -527 0
-127 -627 0
-227 -327 0
-227 -427 0
-227 -527 0
-227 -627 0
-327 -427 0
-327 -527 0
-327 -627 0
-427 -527 0
-427 -627 0
-527 -627 0
-132 -232 0
-132 -332 0
-132 -432 0
-132 -532 0
-132 -632 0
-232 -332 0
-232 -432 0
-232 -532 0
-232 -632 0
-332 -432 0
-332 -532 0
-332 -632 0
-432 -532 0
-432 -632 0
-532 -632 0
-133 -233 0
-133 -333 0
-133 -433 0
-133 -533 0
-133 -633 0
-233 -333 0
-233 -433 0
-233 -533 0
-233 -633 0
-333 -433 0
-333 -533 0
-333 -633 0
-433 -533 0
-433 -633 0
-533 -633 0
-134 -234 0
-134 -334 0
-134 -434 0
-134 -534 0
-134 -634 0
-234 -334 0
-234 -434 0
-234 -534 0
-234 -634 0
-334 -434 0
-334 -534 0
-334 -634 0
-434 -534 0
-434 -634 0
-534 -634 0
-135 -235 0
-135 -335 0
-135 -435 0
-135 -535 0
-135 -635 0
-235 -335 0
-235 -435 0
-235 -535 0
-235 -635 0
-335 -435 0
-335 -535 0
-335 -635 0
-435 -535 0
-435 -635 0
-535 -635 0
-136 -236 0
-136 -336 0
-136 -436 0
-136 -536 0
-136 -636 0
-236 -336 0
-236 -436 0
-236 -536 0
-236 -636 0
-336 -436 0
-336 -536 0
-336 -636 0
-436 -536 0
-436 -636 0
-536 -636 0
-137 -237 0
-137 -337 0
-137 -437 0
-137 -537 0
-137 -637 0
-237 -337 0
-237 -437 0
-237 -537 0
-237 -637 0
-337 -437 0
-337 -537 0
-337 -637 0
-437 -537 0
-437 -637 0
-537 -637 0
-142 -242 0
-142 -342 0
-142 -442 0
-142 -542 0
-142 -642 0
-242 -342 0
-242 -442 0
-242 -542 0
-242 -642 0
-342 -442 0
-342 -542 0
-342 -642 0
-442 -542 0
-442 -642 0
-542 -642 0
-143 -243 0
-143 -343 0
-143 -443 0
-143 -543 0
-143 -643 0
-243 -343 0
-243 -443 0
-243 -543 0
-243 -643 0
-343 -443 0
-343 -543 0
-343 -643 0
-443 -543 0
-443 -643 0
-543 -643 0
-144 -244 0
-144 -344 0
-144 -444 0
-144 -544 0
-144 -644 0
-244 -344 0
-244 -444 0
-244 -544 0
-244 -644 0
-344 -444 0
-344 -544 0
-344 -644 0
-444 -544 0
-444 -644 0
-544 -644 0
-145 -245 0
-145 -345 0
-145 -445 0
-145 -545 0
-145 -645 0
-245 -345 0
-245 -445 0
-245 -545 0
-245 -645 0
-345 -445 0
-345 -545 0
-345 -645 0
-445 -545 0
-445 -645 0
-545 -645 0
-146 -246 0
-146 -346 0
-146 -446 0
-146 -546 0
-146 -646 0
-246 -346 0
-246 -446 0
-246 -546 0
-246 -646 0
-346 -446 0
-346 -546 0
-346 -646 0
-446 -546 0
-446 -646 0
-546 -646 0
-147 -247 0
-147 -347 0
-147 -447 0
-147 -547 0
-147 -647 0
-247 -347 0
-247 -447 0
-247 -547 0
-247 -647 0
-347 -447 0
-347 -547 0
-347 -647 0
-447 -547 0
-447 -647 0
-547 -647 0
-152 -252 0
-152 -352 0
-152 -452 0
-152 -552 0
-152 -652 0
-252 -352 0
-252 -452 0
-252 -552 0
-252 -652 0
-352 -452 0
-352 -552 0
-352 -652 0
-452 -552 0
-452 -652 0
-552 -652 0
-153 -253 0
-153 -353 0
-153 -453 0
-153 -553 0
-153 -653 0
-253 -353 0
-253 -453 0
-253 -553 0
-253 -653 0
-353 -453 0
-353 -553 0
-353 -653 0
-453 -553 0
-453 -653 0
-553 -653 0
-154 -254 0
-154 -354 0
-154 -454 0
-154 -554 0
-154 -654 0
-254 -354 0
-254 -454 0
-254 -554 0
-254 -654 0
-354 -454 0
-354 -554 0
-354 -654 0
-454 -554 0
-454 -654 0
-554 -654 0
-155 -255 0
-155 -355 0
-155 -455 0
-155 -555 0
-155 -655 0
-255 -355 0
-255 -455 0
-255 -555 0
-255 -655 0
-355 -455 0
-355 -555 0
-355 -655 0
-455 -555 0
-455 -655 0
-555 -655 0
-156 -256 0
-156 -356 0
-156 -456 0
-156 -556 0
-156 -656 0
-256 -356 0
-256 -456 0
-256 -556 0
-256 -656 0
-356 -456 0
-356 -556 0
-356 -656 0
-456 -556 0
-456 -656 0
-556 -656 0
-157 -257 0
-157 -357 0
-157 -457 0
-157 -557 0
-157 -657 0
-257 -357 0
-257 -457 0
-257 -557 0
-257 -657 0
-357 -457 0
-357 -557 0
-357 -657 0
-457 -557 0
-457 -657 0
-557 -657 0
-162 -262 0
-162 -362 0
-162 -462 0
-162 -562 0
-162 -662 0
-262 -362 0
-262 -462 0
-262 -562 0
-262 -662 0
-362 -462 0
-362 -562 0
-362 -662 0
-462 -562 0
-462 -662 0
-562 -662 0
-163 -263 0
-163 -363 0
-163 -463 0
-163 -563 0
-163 -663 0
-263 -363 0
-263 -463 0
-263 -563 0
-263 -663 0
-363 -463 0
-363 -563 0
-363 -663 0
-463 -563 0
-463 -663 0
-563 -663 0
-164 -264 0
-164 -364 0
-164 -464 0
-164 -564 0
-164 -664 0
-264 -364 0
-264 -464 0
-264 -564 0
-264 -664 0
-364 -464 0
-364 -564 0
-364 -664 0
-464 -564 0
-464 -664 0
-564 -664 0
-165 -265 0
-165 -365 0
-165 -465 0
-165 -565 0
-165 -665 0
-265 -365 0
-265 -465 0
-265 -565 0
-265 -665 0
-365 -465 0
-365 -565 0
-365 -665 0
-465 -565 0
-465 -665 0
-565 -665 0
-166 -266 0
-166 -366 0
-166 -466 0
-166 -566 0
-166 -666 0
-266 -366 0
-266 -466 0
-266 -566 0
-266 -666 0
-366 -466 0
-366 -566 0
-366 -666 0
-466 -566 0
-466 -666 0
-566 -666 0
-167 -267 0
-167 -367 0
-167 -467 0
-167 -567 0
-167 -667 0
-267 -367 0
-267 -467 0
-267 -567 0
-267 -667 0
-367 -467 0
-367 -567 0
-367 -667 0
-467 -567 0
-467 -667 0
-567 -667 0
112 0
223 0
334 0
445 0
556 0
667 0
-112 -112 112 0
-112 -113 122 0
-112 -114 132 0
-112 -115 142 0
-112 -116 152 0
-112 -117 162 0
-113 -112 212 0
-113 -113 222 0
-113 -114 232 0
-113 -115 242 0
-113 -116 252 0
-113 -117 262 0
-114 -112 312 0
-114 -113 322 0
-114 -114 332 0
-114 -115 342 0
-114 -116 352 0
-114 -117 362 0
-115 -112 412 0
-115 -113 422 0
-115 -114 432 0
-115 -115 442 0
-115 -116 452 0
-115 -117 462 0
-116 -112 512 0
-116 -113 522 0
-116 -114 532 0
-116 -115 542 0
-116 -116 552 0
-116 -117 562 0
-117 -112 612 0
-117 -113 622 0
-117 -114 632 0
-117 -115 642 0
-117 -116 652 0
-117 -117 662 0
-122 -212 112 0
-122 -213 122 0
-122 -214 132 0
-122 -215 142 0
-122 -216 152 0
-122 -217 162 0
-123 -212 212 0
-123 -213 222 0
-123 -214 232 0
-123 -215 242 0
-123 -216 252 0
-123 -217 262 0
-124 -212 312 0
-124 -213 322 0
-124 -214 332 0
-124 -215 342 0
-124 -216 352 0
-124 -217 362 0
-125 -212 412 0
-125 -213 422 0
-125 -214 432 0
-125 -215 442 0
-125 -216 452 0
-125 -217 462 0
-126 -212 512 0
-126 -213 522 0
-126 -214 532 0
-126 -215 542 0
-126 -216 552 0
-126 -217 562 0
-127 -212 612 0
-127 -213 622 0
-127 -214 632 0
-127 -215 642 0
-127 -216 652 0
-127 -217 662 0
-132 -312 112 0
-132 -313 122 0
-132 -314 132 0
-132 -315 142 0
-132 -316 152 0
-132 -317 162 0
-133 -312 212 0
-133 -313 222 0
-133 -314 232 0
-133 -315 242 0
-133 -316 252 0
-133 -317 262 0
-134 -312 312 0
-134 -313 322 0
-134 -314 332 0
-134 -315 342 0
-134 -316 352 0
-134 -317 362 0
-135 -312 412 0
-135 -313 422 0
-135 -314 432 0
-135 -315 442 0
-135 -316 452 0
-135 -317 462 0
-136 -312 512 0
-136 -313 522 0
-136 -314 532 0
-136 -315 542 0
-136 -316 552 0
-136 -317 562 0
-137 -312 612 0
-137 -313 622 0
-137 -314 632 0
-137 -315 642 0
-137 -316 652 0
-137 -317 662 0
-142 -412 112 0
-142 -413 122 0
-142 -414 132 0
-142 -415 142 0
-142 -416 152 0
-142 -417 162 0
-143 -412 212 0
-143 -413 222 0
-143 -414 232 0
-143 -415 242 0
-143 -416 252 0
-143 -417 262 0
-144 -412 312 0
-144 -413 322 0
-144 -414 332 0
-144 -415 342 0
-144 -416 352 0
-144 -417 362 0
-145 -412 412 0
-145 -413 422 0
-145 -414 432 0
-145 -415 442 0
-145 -416 452 0
-145 -417 462 0
-146 -412 512 0
-146 -413 522 0
-146 -414 532 0
-146 -415 542 0
-146 -416 552 0
-146 -417 562 0
-147 -412 612 0
-147 -413 622 0
-147 -414 632 0
-147 -415 642 0
-147 -416 652 0
-147 -417 662 0
-152 -512 112 0
-152 -513 122 0
-152 -514 132 0
-152 -515 142 0
-152 -516 152 0
-152 -517 162 0
-153 -512 212 0
-153 -513 222 0
-153 -514 232 0
-153 -515 242 0
-153 -516 252 0
-153 -517 262 0
-154 -512 312 0
-154 -513 322 0
-154 -514 332 0
-154 -515 342 0
-154 -516 352 0
-154 -517 362 0
-155 -512 412 0
-155 -513 422 0
-155 -514 432 0
-155 -515 442 0
-155 -516 452 0
-155 -517 462 0
-156 -512 512 0
-156 -513 522 0
-156 -514 532 0
-156 -515 542 0
-156 -516 552 0
-156 -517 562 0
-157 -512 612 0
-157 -513 622 0
-157 -514 632 0
-157 -515 642 0
-157 -516 652 0
-157 -517 662 0
-162 -612 112 0
-162 -613 122 0
-162 -614 132 0
-162 -615 142 0
-162 -616 152 0
-162 -617 162 0
-163 -612 212 0
-163 -613 222 0
-163 -614 232 0
-163 -615 242 0
-163 -616 252 0
-163 -617 262 0
-164 -612 312 0
-164 -613 322 0
-164 -614 332 0
-164 -615 342 0
-164 -616 352 0
-164 -617 362 0
-165 -612 412 0
-165 -613 422 0
-165 -614 432 0
-165 -615 442 0
-165 -616 452 0
-165 -617 462 0
-166 -612 512 0
-166 -613 522 0
-166 -614 532 0
-166 -615 542 0
-166 -616 552 0
-166 -617 562 0
-167 -612 612 0
-167 -613 622 0
-167 -614 632 0
-167 -615 642 0
-167 -616 652 0
-167 -617 662 0
-212 -122 113 0
-212 -123 123 0
-212 -124 133 0
-212 -125 143 0
-212 -126 153 0
-212 -127 163 0
-213 -122 213 0
-213 -123 223 0
-213 -124 233 0
-213 -125 243 0
-213 -126 253 0
-213 -127 263 0
-214 -122 313 0
-214 -123 323 0
-214 -124 333 0
-214 -125 343 0
-214 -126 353 0
-214 -127 363 0
-215 -122 413 0
-215 -123 423 0
-215 -124 433 0
-215 -125 443 0
-215 -126 453 0
-215 -127 463 0
-216 -122 513 0
-216 -123 523 0
-216 -124 533 0
-216 -125 543 0
-216 -126 553 0
-216 -127 563 0
-217 -122 613 0
-217 -123 623 0
-217 -124 633 0
-217 -125 643 0
-217 -126 653 0
-217 -127 663 0
-222 -222 113 0
-222 -223 123 0
-222 -224 133 0
-222 -225 143 0
-222 -226 153 0
-222 -227 163 0
-223 -222 213 0
-223 -223 223 0
-223 -224 233 0
-223 -225 243 0
-223 -226 253 0
-223 -227 263 0
-224 -222 313 0
-224 -223 323 0
-224 -224 333 0
-224 -225 343 0
-224 -226 353 0
-224 -227 363 0
-225 -222 413 0
-225 -223 423 0
-225 -224 433 0
-225 -225 443 0
-225 -226 453 0
-225 -227 463 0
-226 -222 513 0
-226 -223 523 0
-226 -224 533 0
-226 -225 543 0
-226 -226 553 0
-226 -227 563 0
-227 -222 613 0
-227 -223 623 0
-227 -224 633 0
-227 -225 643 0
-227 -226 653 0
-227 -227 663 0
-232 -322 113 0
-232 -323 123 0
-232 -324 133 0
-232 -325 143 0
-232 -326 153 0
-232 -327 163 0
-233 -322 213 0
-233 -323 223 0
-233 -324 233 0
-233 -325 243 0
-233 -326 253 0
-233 -327 263 0
-234 -322 313 0
-234 -323 323 0
-234 -324 333 0
-234 -325 343 0
-234 -326 353 0
-234 -327 363 0
-235 -322 413 0
-235 -323 423 0
-235 -324 433 0
-235 -325 443 0
-235 -326 453 0
-235 -327 463 0
-236 -322 513 0
-236 -323 523 0
-236 -324 533 0
-236 -325 543 0
-236 -326 553 0
-236 -327 563 0
-237 -322 613 0
-237 -323 623 0
-237 -324 633 0
-237 -325 643 0
-237 -326 653 0
-237 -327 663 0
-242 -422 113 0
-242 -423 123 0
-242 -424 133 0
-242 -425 143 0
-242 -426 153 0
-242 -427 163 0
-243 -422 213 0
-243 -423 223 0
-243 -424 233 0
-243 -425 243 0
-243 -426 253 0
-243 -427 263 0
-244 -422 313 0
-244 -423 323 0
-244 -424 333 0
-244 -425 343 0
-244 -426 353 0
-244 -427 363 0
-245 -422 413 0
-245 -423 423 0
-245 -424 433 0
-245 -425 443 0
-245 -426 453 0
-245 -427 463 0
-246 -422 513 0
-246 -423 523 0
-246 -424 533 0
-246 -425 543 0
-246 -426 553 0
-246 -427 563 0
-247 -422 613 0
-247 -423 623 0
-247 -424 633 0
-247 -425 643 0
-247 -426 653 0
-247 -427 663 0
-252 -522 113 0
-252 -523 123 0
-252 -524 133 0
-252 -525 143 0
-252 -526 153 0
-252 -527 163 0
-253 -522 213 0
-253 -523 223 0
-253 -524 233 0
-253 -525 243 0
-253 -526 253 0
-253 -527 263 0
-254 -522 313 0
-254 -523 323 0
-254 -524 333 0
-254 -525 343 0
-254 -526 353 0
-254 -527 363 0
-255 -522 413 0
-255 -523 423 0
-255 -524 433 0
-255 -525 443 0
-255 -526 453 0
-255 -527 463 0
-256 -522 513 0
-256 -523 523 0
-256 -524 533 0
-256 -525 543 0
-256 -526 553 0
-256 -527 563 0
-257 -522 613 0
-257 -523 623 0
-257 -524 633 0
-257 -525 643 0
-257 -526 653 0
-257 -527 663 0
-262 -622 113 0
-262 -623 123 0
-262 -624 133 0
-262 -625 143 0
-262 -626 153 0
-262 -627 163 0
-263 -622 213 0
-263 -623 223 0
-263 -624 233 0
-263 -625 243 0
-263 -626 253 0
-263 -627 263 0
-264 -622 313 0
-264 -623 323 0
-264 -624 333 0
-264 -625 343 0
-264 -626 353 0
-264 -627 363 0
-265 -622 413 0
-265 -623 423 0
-265 -624 433 0
-265 -625 443 0
-265 -626 453 0
-265 -627 463 0
-266 -622 513 0
-266 -623 523 0
-266 -624 533 0
-266 -625 543 0
-266 -626 553 0
-266 -627 563 0
-267 -622 613 0
-267 -623 623 0
-267 -624 633 0
-267 -625 643 0
-267 -626 653 0
-267 -627 663 0
-312 -132 114 0
-312 -133 124 0
-312 -134 134 0
-312 -135 144 0
-312 -136 154 0
-312 -137 164 0
-313 -132 214 0
-313 -133 224 0
-313 -134 234 0
-313 -135 244 0
-313 -136 254 0
-313 -137 264 0
-314 -132 314 0
-314 -133 324 0
-314 -134 334 0
-314 -135 344 0
-314 -136 354 0
-314 -137 364 0
-315 -132 414 0
-315 -133 424 0
-315 -134 434 0
-315 -135 444 0
-315 -136 454 0
-315 -137 464 0
-316 -132 514 0
-316 -133 524 0
-316 -134 534 0
-316 -135 544 0
-316 -136 554 0
-316 -137 564 0
-317 -132 614 0
-317 -133 624 0
-317 -134 634 0
-317 -135 644 0
-317 -136 654 0
-317 -137 664 0
-322 -232 114 0
-322 -233 124 0
-322 -234 134 0
-322 -235 144 0
-322 -236 154 0
-322 -237 164 0
-323 -232 214 0
-323 -233 224 0
-323 -234 234 0
-323 -235 244 0
-323 -236 254 0
-323 -237 264 0
-324 -232 314 0
-324 -233 324 0
-324 -234 334 0
-324 -235 344 0
-324 -236 354 0
-324 -237 364 0
-325 -232 414 0
-325 -233 424 0
-325 -234 434 0
-325 -235 444 0
-325 -236 454 0
-325 -237 464 0
-326 -232 514 0
-326 -233 524 0
-326 -234 534 0
-326 -235 544 0
-326 -236 554 0
-326 -237 564 0
-327 -232 614 0
-327 -233 624 0
-327 -234 634 0
-327 -235 644 0
-327 -236 654 0
-327 -237 664 0
-332 -332 114 0
-332 -333 124 0
-332 -334 134 0
-332 -335 144 0
-332 -336 154 0
-332 -337 164 0
-333 -332 214 0
-333 -333 224 0
-333 -334 234 0
-333 -335 244 0
-333 -336 254 0
-333 -337 264 0
-334 -332 314 0
-334 -333 324 0
-334 -334 334 0
-334 -335 344 0
-334 -336 354 0
-334 -337 364 0
-335 -332 414 0
-335 -333 424 0
-335 -334 434 0
-335 -335 444 0
-335 -336 454 0
-335 -337 464 0
-336 -332 514 0
-336 -333 524 0
-336 -334 534 0
-336 -335 544 0
-336 -336 554 0
-336 -337 564 0
-337 -332 614 0
-337 -333 624 0
-337 -334 634 0
-337 -335 644 0
-337 -336 654 0
-337 -337 664 0
-342 -432 114 0
-342 -433 124 0
-342 -434 134 0
-342 -435 144 0
-342 -436 154 0
-342 -437 164 0
-343 -432 214 0
-343 -433 224 0
-343 -434 234 0
-343 -435 244 0
-343 -436 254 0
-343 -437 264 0
-344 -432 314 0
-344 -433 324 0
-344 -434 334 0
-344 -435 344 0
-344 -436 354 0
-344 -437 364 0
-345 -432 414 0
-345 -433 424 0
-345 -434 434 0
-345 -435 444 0
-345 -436 454 0
-345 -437 464 0
-346 -432 514 0
-346 -433 524 0
-346 -434 534 0
-346 -435 544 0
-346 -436 554 0
-346 -437 564 0
-347 -432 614 0
-347 -433 624 0
-347 -434 634 0
-347 -435 644 0
-347 -436 654 0
-347 -437 664 0
-352 -532 114 0
-352 -533 124 0
-352 -534 134 0
-352 -535 144 0
-352 -536 154 0
-352 -537 164 0
-353 -532 214 0
-353 -533 224 0
-353 -534 234 0
-353 -535 244 0
-353 -536 254 0
-353 -537 264 0
-354 -532 314 0
-354 -533 324 0
-354 -534 334 0
-354 -535 344 0
-354 -536 354 0
-354 -537 364 0
-355 -532 414 0
-355 -533 424 0
-355 -534 434 0
-355 -535 444 0
-355 -536 454 0
-355 -537 464 0
-356 -532 514 0
-356 -533 524 0
-356 -534 534 0
-356 -535 544 0
-356 -536 554 0
-356 -537 564 0
-357 -532 614 0
-357 -533 624 0
-357 -534 634 0
-357 -535 644 0
-357 -536 654 0
-357 -537 664 0
-362 -632 114 0
-362 -633 124 0
-362 -634 134 0
-362 -635 144 0
-362 -636 154 0
-362 -637 164 0
-363 -632 214 0
-363 -633 224 0
-363 -634 234 0
-363 -635 244 0
-363 -636 254 0
-363 -637 264 0
-364 -632 314 0
-364 -633 324 0
-364 -634 334 0
-364 -635 344 0
-364 -636 354 0
-364 -637 364 0
-365 -632 414 0
-365 -633 424 0
-365 -634 434 0
-365 -635 444 0
-365 -636 454 0
-365 -637 464 0
-366 -632 514 0
-366 -633 524 0
-366 -634 534 0
-366 -635 544 0
-366 -636 554 0
-366 -637 564 0
-367 -632 614 0
-367 -633 624 0
-367 -634 634 0
-367 -635 644 0
-367 -636 654 0
-367 -637 664 0
-412 -142 115 0
-412 -143 125 0
-412 -144 135 0
-412 -145 145 0
-412 -146 155 0
-412 -147 165 0
-413 -142 215 0
-413 -143 225 0
-413 -144 235 0
-413 -145 245 0
-413 -146 255 0
-413 -147 265 0
-414 -142 315 0
-414 -143 325 0
-414 -144 335 0
-414 -145 345 0
-414 -146 355 0
-414 -147 365 0
-415 -142 415 0
-415 -143 425 0
-415 -144 435 0
-415 -145 445 0
-415 -146 455 0
-415 -147 465 0
-416 -142 515 0
-416 -143 525 0
-416 -144 535 0
-416 -145 545 0
-416 -146 555 0
-416 -147 565 0
-417 -142 615 0
-417 -143 625 0
-417 -144 635 0
-417 -145 645 0
-417 -146 655 0
-417 -147 665 0
-422 -242 115 0
-422 -243 125 0
-422 -244 135 0
-422 -245 145 0
-422 -246 155 0
-422 -247 165 0
-423 -242 215 0
-423 -243 225 0
-423 -244 235 0
-423 -245 245 0
-423 -246 255 0
-423 -247 265 0
-424 -242 315 0
-424 -243 325 0
-424 -244 335 0
-424 -245 345 0
-424 -246 355 0
-424 -247 365 0
-425 -242 415 0
-425 -243 425 0
-425 -244 435 0
-425 -245 445 0
-425 -246 455 0
-425 -247 465 0
-426 -242 515 0
-426 -243 525 0
-426 -244 535 0
-426 -245 545 0
-426 -246 555 0
-426 -247 565 0
-427 -242 615 0
-427 -243 625 0
-427 -244 635 0
-427 -245 645 0
-427 -246 655 0
-427 -247 665 0
-432 -342 115 0
-432 -343 125 0
-432 -344 135 0
-432 -345 145 0
-432 -346 155 0
-432 -347 165 0
-433 -342 215 0
-433 -343 225 0
-433 -344 235 0
-433 -345 245 0
-433 -346 255 0
-433 -347 265 0
-434 -342 315 0
-434 -343 325 0
-434 -344 335 0
-434 -345 345 0
-434 -346 355 0
-434 -347 365 0
-435 -342 415 0
-435 -343 425 0
-435 -344 435 0
-435 -345 445 0
-435 -346 455 0
-435 -347 465 0
-436 -342 515 0
-436 -343 525 0
-436 -344 535 0
-436 -345 545 0
-436 -346 555 0
-436 -347 565 0
-437 -342 615 0
-437 -343 625 0
-437 -344 635 0
-437 -345 645 0
-437 -346 655 0
-437 -347 665 0
-442 -442 115 0
-442 -443 125 0
-442 -444 135 0
-442 -445 145 0
-442 -446 155 0
-442 -447 165 0
-443 -442 215 0
-443 -443 225 0
-443 -444 235 0
-443 -445 245 0
-443 -446 255 0
-443 -447 265 0
-444 -442 315 0
-444 -443 325 0
-444 -444 335 0
-444 -445 345 0
-444 -446 355 0
-444 -447 365 0
-445 -442 415 0
-445 -443 425 0
-445 -444 435 0
-445 -445 445 0
-445 -446 455 0
-445 -447 465 0
-446 -442 515 0
-446 -443 525 0
-446 -444 535 0
-446 -445 545 0
-446 -446 555 0
-446 -447 565 0
-447 -442 615 0
-447 -443 625 0
-447 -444 635 0
-447 -445 645 0
-447 -446 655 0
-447 -447 665 0
-452 -542 115 0
-452 -543 125 0
-452 -544 135 0
-452 -545 145 0
-452 -546 155 0
-452 -547 165 0
-453 -542 215 0
-453 -543 225 0
-453 -544 235 0
-453 -545 245 0
-453 -546 255 0
-453 -547 265 0
-454 -542 315 0
-454 -543 325 0
-454 -544 335 0
-454 -545 345 0
-454 -546 355 0
-454 -547 365 0
-455 -542 415 0
-455 -543 425 0
-455 -544 435 0
-455 -545 445 0
-455 -546 455 0
-455 -547 465 0
-456 -542 515 0
-456 -543 525 0
-456 -544 535 0
-456 -545 545 0
-456 -546 555 0
-456 -547 565 0
-457 -542 615 0
-457 -543 625 0
-457 -544 635 0
-457 -545 645 0
-457 -546 655 0
-457 -547 665 0
-462 -642 115 0
-462 -643 125 0
-462 -644 135 0
-462 -645 145 0
-462 -646 155 0
-462 -647 165 0
-463 -642 215 0
-463 -643 225 0
-463 -644 235 0
-463 -645 245 0
-463 -646 255 0
-463 -647 265 0
-464 -642 315 0
-464 -643 325 0
-464 -644 335 0
-464 -645 345 0
-464 -646 355 0
-464 -647 365 0
-465 -642 415 0
-465 -643 425 0
-465 -644 435 0
-465 -645 445 0
-465 -646 455 0
-465 -647 465 0
-466 -642 515 0
-466 -643 525 0
-466 -644 535 0
-466 -645 545 0
-466 -646 555 0
-466 -647 565 0
-467 -642 615 0
-467 -643 625 0
-467 -644 635 0
-467 -645 645 0
-467 -646 655 0
-467 -647 665 0
-512 -152 116 0
-512 -153 126 0
-512 -154 136 0
-512 -155 146 0
-512 -156 156 0
-512 -157 166 0
-513 -152 216 0
-513 -153 226 0
-513 -154 236 0
-513 -155 246 0
-513 -156 256 0
-513 -157 266 0
-514 -152 316 0
-514 -153 326 0
-514 -154 336 0
-514 -155 346 0
-514 -156 356 0
-514 -157 366 0
-515 -152 416 0
-515 -153 426 0
-515 -154 436 0
-515 -155 446 0
-515 -156 456 0
-515 -157 466 0
-516 -152 516 0
-516 -153 526 0
-516 -154 536 0
-516 -155 546 0
-516 -156 556 0
-516 -157 566 0
-517 -152 616 0
-517 -153 626 0
-517 -154 636 0
-517 -155 646 0
-517 -156 656 0
-517 -157 666 0
-522 -252 116 0
-522 -253 126 0
-522 -254 136 0
-522 -255 146 0
-522 -256 156 0
-522 -257 166 0
-523 -252 216 0
-523 -253 226 0
-523 -254 236 0
-523 -255 246 0
-523 -256 256 0
-523 -257 266 0
-524 -252 316 0
-524 -253 326 0
-524 -254 336 0
-524 -255 346 0
-524 -256 356 0
-524 -257 366 0
-525 -252 416 0
-525 -253 426 0
-525 -254 436 0
-525 -255 446 0
-525 -256 456 0
-525 -257 466 0
-526 -252 516 0
-526 -253 526 0
-526 -254 536 0
-526 -255 546 0
-526 -256 556 0
-526 -257 566 0
-527 -252 616 0
-527 -253 626 0
-527 -254 636 0
-527 -255 646 0
-527 -256 656 0
-527 -257 666 0
-532 -352 116 0
-532 -353 126 0
-532 -354 136 0
-532 -355 146 0
-532 -356 156 0
-532 -357 166 0
-533 -352 216 0
-533 -353 226 0
-533 -354 236 0
-533 -355 246 0
-533 -356 256 0
-533 -357 266 0
-534 -352 316 0
-534 -353 326 0
-534 -354 336 0
-534 -355 346 0
-534 -356 356 0
-534 -357 366 0
-535 -352 416 0
-535 -353 426 0
-535 -354 436 0
-535 -355 446 0
-535 -356 456 0
-535 -357 466 0
-536 -352 516 0
-536 -353 526 0
-536 -354 536 0
-536 -355 546 0
-536 -356 556 0
-536 -357 566 0
-537 -352 616 0
-537 -353 626 0
-537 -354 636 0
-537 -355 646 0
-537 -356 656 0
-537 -357 666 0
-542 -452 116 0
-542 -453 126 0
-542 -454 136 0
-542 -455 146 0
-542 -456 156 0
-542 -457 166 0
-543 -452 216 0
-543 -453 226 0
-543 -454 236 0
-543 -455 246 0
-543 -456 256 0
-543 -457 266 0
-544 -452 316 0
-544 -453 326 0
-544 -454 336 0
-544 -455 346 0
-544 -456 356 0
-544 -457 366 0
-545 -452 416 0
-545 -453 426 0
-545 -454 436 0
-545 -455 446 0
-545 -456 456 0
-545 -457 466 0
-546 -452 516 0
-546 -453 526 0
-546 -454 536 0
-546 -455 546 0
-546 -456 556 0
-546 -457 566 0
-547 -452 616 0
-547 -453 626 0
-547 -454 636 0
-547 -455 646 0
-547 -456 656 0
-547 -457 666 0
-552 -552 116 0
-552 -553 126 0
-552 -554 136 0
-552 -555 146 0
-552 -556 156 0
-552 -557 166 0
-553 -552 216 0
-553 -553 226 0
-553 -554 236 0
-553 -555 246 0
-553 -556 256 0
-553 -557 266 0
-554 -552 316 0
-554 -553 326 0
-554 -554 336 0
-554 -555 346 0
-554 -556 356 0
-554 -557 366 0
-555 -552 416 0
-555 -553 426 0
-555 -554 436 0
-555 -555 446 0
-555 -556 456 0
-555 -557 466 0
-556 -552 516 0
-556 -553 526 0
-556 -554 536 0
-556 -555 546 0
-556 -556 556 0
-556 -557 566 0
-557 -552 616 0
-557 -553 626 0
-557 -554 636 0
-557 -555 646 0
-557 -556 656 0
-557 -557 666 0
-562 -652 116 0
-562 -653 126 0
-562 -654 136 0
-562 -655 146 0
-562 -656 156 0
-562 -657 166 0
-563 -652 216 0
-563 -653 226 0
-563 -654 236 0
-563 -655 246 0
-563 -656 256 0
-563 -657 266 0
-564 -652 316 0
-564 -653 326 0
-564 -654 336 0
-564 -655 346 0
-564 -656 356 0
-564 -657 366 0
-565 -652 416 0
-565 -653 426 0
-565 -654 436 0
-565 -655 446 0
-565 -656 456 0
-565 -657 466 0
-566 -652 516 0
-566 -653 526 0
-566 -654 536 0
-566 -655 546 0
-566 -656 556 0
-566 -657 566 0
-567 -652 616 0
-567 -653 626 0
-567 -654 636 0
-567 -655 646 0
-567 -656 656 0
-567 -657 666 0
-612 -162 117 0
-612 -163 127 0
-612 -164 137 0
-612 -165 147 0
-612 -166 157 0
-612 -167 167 0
-613 -162 217 0
-613 -163 227 0
-613 -164 237 0
-613 -165 247 0
-613 -166 257 0
-613 -167 267 0
-614 -162 317 0
-614 -163 327 0
-614 -164 337 0
-614 -165 347 0
-614 -166 357 0
-614 -167 367 0
-615 -162 417 0
-615 -163 427 0
-615 -164 437 0
-615 -165 447 0
-615 -166 457 0
-615 -167 467 0
-616 -162 517 0
-616 -163 527 0
-616 -164 537 0
-616 -165 547 0
-616 -166 557 0
-616 -167 567 0
-617 -162 617 0
-617 -163 627 0
-617 -164 637 0
-617 -165 647 0
-617 -166 657 0
-617 -167 667 0
-622 -262 117 0
-622 -263 127 0
-622 -264 137 0
-622 -265 147 0
-622 -266 157 0
-622 -267 167 0
-623 -262 217 0
-623 -263 227 0
-623 -264 237 0
-623 -265 247 0
-623 -266 257 0
-623 -267 267 0
-624 -262 317 0
-624 -263 327 0
-624 -264 337 0
-624 -265 347 0
-624 -266 357 0
-624 -267 367 0
-625 -262 417 0
-625 -263 427 0
-625 -264 437 0
-625 -265 447 0
-625 -266 457 0
-625 -267 467 0
-626 -262 517 0
-626 -263 527 0
-626 -264 537 0
-626 -265 547 0
-626 -266 557 0
-626 -267 567 0
-627 -262 617 0
-627 -263 627 0
-627 -264 637 0
-627 -265 647 0
-627 -266 657 0
-627 -267 667 0
-632 -362 117 0
-632 -363 127 0
-632 -364 137 0
-632 -365 147 0
-632 -366 157 0
-632 -367 167 0
-633 -362 217 0
-633 -363 227 0
-633 -364 237 0
-633 -365 247 0
-633 -366 257 0
-633 -367 267 0
-634 -362 317 0
-634 -363 327 0
-634 -364 337 0
-634 -365 347 0
-634 -366 357 0
-634 -367 367 0
-635 -362 417 0
-635 -363 427 0
-635 -364 437 0
-635 -365 447 0
-635 -366 457 0
-635 -367 467 0
-636 -362 517 0
-636 -363 527 0
-636 -364 537 0
-636 -365 547 0
-636 -366 557 0
-636 -367 567 0
-637 -362 617 0
-637 -363 627 0
-637 -364 637 0
-637 -365 647 0
-637 -366 657 0
-637 -367 667 0
-642 -462 117 0
-642 -463 127 0
-642 -464 137 0
-642 -465 147 0
-642 -466 157 0
-642 -467 167 0
-643 -462 217 0
-643 -463 227 0
-643 -464 237 0
-643 -465 247 0
-643 -466 257 0
-643 -467 267 0
-644 -462 317 0
-644 -463 327 0
-644 -464 337 0
-644 -465 347 0
-644 -466 357 0
-644 -467 367 0
-645 -462 417 0
-645 -463 427 0
-645 -464 437 0
-645 -465 447 0
-645 -466 457 0
-645 -467 467 0
-646 -462 517 0
-646 -463 527 0
-646 -464 537 0
-646 -465 547 0
-646 -466 557 0
-646 -467 567 0
-647 -462 617 0
-647 -463 627 0
-647 -464 637 0
-647 -465 647 0
-647 -466 657 0
-647 -467 667 0
-652 -562 117 0
-652 -563 127 0
-652 -564 137 0
-652 -565 147 0
-652 -566 157 0
-652 -567 167 0
-653 -562 217 0
-653 -563 227 0
-653 -564 237 0
-653 -565 247 0
-653 -566 257 0
-653 -567 267 0
-654 -562 317 0
-654 -563 327 0
-654 -564 337 0
-654 -565 347 0
-654 -566 357 0
-654 -567 367 0
-655 -562 417 0
-655 -563 427 0
-655 -564 437 0
-655 -565 447 0
-655 -566 457 0
-655 -567 467 0
-656 -562 517 0
-656 -563 527 0
-656 -564 537 0
-656 -565 547 0
-656 -566 557 0
-656 -567 567 0
-657 -562 617 0
-657 -563 627 0
-657 -564 637 0
-657 -565 647 0
-657 -566 657 0
-657 -567 667 0
-662 -662 117 0
-662 -663 127 0
-662 -664 137 0
-662 -665 147 0
-662 -666 157 0
-662 -667 167 0
-663 -662 217 0
-663 -663 227 0
-663 -664 237 0
-663 -665 247 0
-663 -666 257 0
-663 -667 267 0
-664 -662 317 0
-664 -663 327 0
-664 -664 337 0
-664 -665 347 0
-664 -666 357 0
-664 -667 367 0
-665 -662 417 0
-665 -663 427 0
-665 -664 437 0
-665 -665 447 0
-665 -666 457 0
-665 -667 467 0
-666 -662 517 0
-666 -663 527 0
-666 -664 537 0
-666 -665 547 0
-666 -666 557 0
-666 -667 567 0
-667 -662 617 0
-667 -663 627 0
-667 -664 637 0
-667 -665 647 0
-667 -666 657 0
-667 -667 667 0
